p cnf 200 1110
-101 61 0
-101 -25 0
-101 23 0
-101 -91 0
-101 50 0
-101 -42 0
-101 -17 0
-101 99 0
-101 -16 0
-101 -28 0
101 -61 25 -23 91 -50 42 17 -99 16 28 0
-102 89 0
-102 60 0
-102 -55 0
-102 -74 0
-102 -47 0
-102 83 0
-102 -16 0
-102 -36 0
-102 82 0
-102 21 0
102 -89 -60 55 74 47 -83 16 36 -82 -21 0
-103 -80 0
-103 9 0
-103 92 0
-103 94 0
-103 79 0
-103 -96 0
-103 -74 0
-103 -42 0
-103 23 0
-103 52 0
103 80 -9 -92 -94 -79 96 74 42 -23 -52 0
-104 -78 0
-104 -61 0
-104 81 0
-104 50 0
-104 86 0
-104 -76 0
-104 12 0
-104 -7 0
-104 100 0
-104 35 0
104 78 61 -81 -50 -86 76 -12 7 -100 -35 0
-105 39 0
-105 -24 0
-105 -97 0
-105 -31 0
-105 13 0
-105 96 0
-105 -64 0
-105 -15 0
-105 20 0
-105 26 0
105 -39 24 97 31 -13 -96 64 15 -20 -26 0
-106 -46 0
-106 96 0
-106 72 0
-106 -97 0
-106 69 0
-106 -15 0
-106 -18 0
-106 21 0
-106 91 0
-106 62 0
106 46 -96 -72 97 -69 15 18 -21 -91 -62 0
-107 51 0
-107 -37 0
-107 82 0
-107 -77 0
-107 93 0
-107 56 0
-107 -23 0
-107 45 0
-107 90 0
-107 14 0
107 -51 37 -82 77 -93 -56 23 -45 -90 -14 0
-108 -49 0
-108 -68 0
-108 50 0
-108 -2 0
-108 40 0
-108 -97 0
-108 51 0
-108 92 0
-108 -20 0
-108 30 0
108 49 68 -50 2 -40 97 -51 -92 20 -30 0
-109 -24 0
-109 -25 0
-109 -65 0
-109 -62 0
-109 -100 0
-109 -11 0
-109 41 0
-109 -19 0
-109 26 0
-109 68 0
109 24 25 65 62 100 11 -41 19 -26 -68 0
-110 -80 0
-110 67 0
-110 -56 0
-110 -51 0
-110 21 0
-110 8 0
-110 50 0
-110 -93 0
-110 -3 0
-110 -73 0
110 80 -67 56 51 -21 -8 -50 93 3 73 0
101 102 103 104 105 106 107 108 109 110 0
-111 -31 0
-111 72 0
-111 47 0
-111 55 0
-111 19 0
-111 73 0
-111 -5 0
-111 34 0
-111 -68 0
-111 24 0
111 31 -72 -47 -55 -19 -73 5 -34 68 -24 0
-112 32 0
-112 -2 0
-112 31 0
-112 5 0
-112 -10 0
-112 78 0
-112 -64 0
-112 -96 0
-112 90 0
-112 -84 0
112 -32 2 -31 -5 10 -78 64 96 -90 84 0
-113 85 0
-113 44 0
-113 -21 0
-113 6 0
-113 -38 0
-113 -30 0
-113 -1 0
-113 -19 0
-113 -52 0
-113 34 0
113 -85 -44 21 -6 38 30 1 19 52 -34 0
-114 -71 0
-114 -4 0
-114 44 0
-114 -20 0
-114 74 0
-114 -93 0
-114 -86 0
-114 58 0
-114 95 0
-114 56 0
114 71 4 -44 20 -74 93 86 -58 -95 -56 0
-115 21 0
-115 4 0
-115 17 0
-115 -74 0
-115 19 0
-115 -78 0
-115 52 0
-115 -75 0
-115 66 0
-115 -57 0
115 -21 -4 -17 74 -19 78 -52 75 -66 57 0
-116 71 0
-116 24 0
-116 23 0
-116 -32 0
-116 -15 0
-116 39 0
-116 -67 0
-116 98 0
-116 95 0
-116 17 0
116 -71 -24 -23 32 15 -39 67 -98 -95 -17 0
-117 42 0
-117 98 0
-117 -52 0
-117 93 0
-117 14 0
-117 13 0
-117 44 0
-117 79 0
-117 -23 0
-117 -100 0
117 -42 -98 52 -93 -14 -13 -44 -79 23 100 0
-118 -76 0
-118 -97 0
-118 -30 0
-118 45 0
-118 60 0
-118 86 0
-118 -59 0
-118 -48 0
-118 51 0
-118 15 0
118 76 97 30 -45 -60 -86 59 48 -51 -15 0
-119 37 0
-119 -84 0
-119 66 0
-119 -79 0
-119 -42 0
-119 -25 0
-119 -47 0
-119 93 0
-119 -5 0
-119 -92 0
119 -37 84 -66 79 42 25 47 -93 5 92 0
-120 83 0
-120 18 0
-120 5 0
-120 -64 0
-120 19 0
-120 -41 0
-120 29 0
-120 -13 0
-120 84 0
-120 56 0
120 -83 -18 -5 64 -19 41 -29 13 -84 -56 0
111 112 113 114 115 116 117 118 119 120 0
-121 -47 0
-121 60 0
-121 -27 0
-121 10 0
-121 96 0
-121 25 0
-121 67 0
-121 39 0
-121 -48 0
-121 76 0
121 47 -60 27 -10 -96 -25 -67 -39 48 -76 0
-122 -10 0
-122 -39 0
-122 -92 0
-122 -48 0
-122 95 0
-122 -19 0
-122 -66 0
-122 -56 0
-122 -22 0
-122 -15 0
122 10 39 92 48 -95 19 66 56 22 15 0
-123 18 0
-123 -16 0
-123 94 0
-123 -97 0
-123 -8 0
-123 -7 0
-123 -4 0
-123 -85 0
-123 75 0
-123 19 0
123 -18 16 -94 97 8 7 4 85 -75 -19 0
-124 -19 0
-124 53 0
-124 -18 0
-124 98 0
-124 80 0
-124 4 0
-124 6 0
-124 -25 0
-124 -17 0
-124 15 0
124 19 -53 18 -98 -80 -4 -6 25 17 -15 0
-125 -16 0
-125 29 0
-125 -20 0
-125 78 0
-125 -50 0
-125 -83 0
-125 -10 0
-125 -81 0
-125 -51 0
-125 -73 0
125 16 -29 20 -78 50 83 10 81 51 73 0
-126 82 0
-126 -62 0
-126 -97 0
-126 93 0
-126 -77 0
-126 -46 0
-126 95 0
-126 -34 0
-126 37 0
-126 -5 0
126 -82 62 97 -93 77 46 -95 34 -37 5 0
-127 -53 0
-127 -72 0
-127 -76 0
-127 69 0
-127 13 0
-127 -38 0
-127 83 0
-127 -75 0
-127 21 0
-127 -7 0
127 53 72 76 -69 -13 38 -83 75 -21 7 0
-128 -10 0
-128 27 0
-128 18 0
-128 -95 0
-128 -96 0
-128 69 0
-128 -60 0
-128 -16 0
-128 80 0
-128 23 0
128 10 -27 -18 95 96 -69 60 16 -80 -23 0
-129 -28 0
-129 -60 0
-129 20 0
-129 16 0
-129 44 0
-129 -87 0
-129 -27 0
-129 -48 0
-129 47 0
-129 7 0
129 28 60 -20 -16 -44 87 27 48 -47 -7 0
-130 36 0
-130 64 0
-130 -83 0
-130 9 0
-130 67 0
-130 56 0
-130 -49 0
-130 -91 0
-130 41 0
-130 21 0
130 -36 -64 83 -9 -67 -56 49 91 -41 -21 0
121 122 123 124 125 126 127 128 129 130 0
-131 69 0
-131 100 0
-131 15 0
-131 -96 0
-131 86 0
-131 -29 0
-131 58 0
-131 -9 0
-131 -89 0
-131 20 0
131 -69 -100 -15 96 -86 29 -58 9 89 -20 0
-132 -70 0
-132 -67 0
-132 55 0
-132 8 0
-132 26 0
-132 -47 0
-132 16 0
-132 17 0
-132 71 0
-132 82 0
132 70 67 -55 -8 -26 47 -16 -17 -71 -82 0
-133 -86 0
-133 -93 0
-133 27 0
-133 -3 0
-133 72 0
-133 52 0
-133 87 0
-133 -4 0
-133 -57 0
-133 -50 0
133 86 93 -27 3 -72 -52 -87 4 57 50 0
-134 58 0
-134 -96 0
-134 -32 0
-134 -62 0
-134 -50 0
-134 -36 0
-134 72 0
-134 -3 0
-134 -92 0
-134 -35 0
134 -58 96 32 62 50 36 -72 3 92 35 0
-135 -83 0
-135 -80 0
-135 1 0
-135 35 0
-135 32 0
-135 -57 0
-135 69 0
-135 11 0
-135 22 0
-135 65 0
135 83 80 -1 -35 -32 57 -69 -11 -22 -65 0
-136 77 0
-136 33 0
-136 56 0
-136 -79 0
-136 -10 0
-136 16 0
-136 -68 0
-136 -51 0
-136 98 0
-136 -80 0
136 -77 -33 -56 79 10 -16 68 51 -98 80 0
-137 -26 0
-137 -16 0
-137 51 0
-137 -2 0
-137 -5 0
-137 77 0
-137 -11 0
-137 -67 0
-137 -30 0
-137 -78 0
137 26 16 -51 2 5 -77 11 67 30 78 0
-138 16 0
-138 -45 0
-138 65 0
-138 22 0
-138 -8 0
-138 -27 0
-138 -41 0
-138 87 0
-138 -28 0
-138 76 0
138 -16 45 -65 -22 8 27 41 -87 28 -76 0
-139 5 0
-139 95 0
-139 17 0
-139 -84 0
-139 54 0
-139 27 0
-139 -80 0
-139 -48 0
-139 13 0
-139 88 0
139 -5 -95 -17 84 -54 -27 80 48 -13 -88 0
-140 83 0
-140 -44 0
-140 76 0
-140 59 0
-140 -51 0
-140 84 0
-140 10 0
-140 -26 0
-140 39 0
-140 93 0
140 -83 44 -76 -59 51 -84 -10 26 -39 -93 0
131 132 133 134 135 136 137 138 139 140 0
-141 -36 0
-141 81 0
-141 -65 0
-141 -91 0
-141 54 0
-141 79 0
-141 47 0
-141 46 0
-141 -96 0
-141 -2 0
141 36 -81 65 91 -54 -79 -47 -46 96 2 0
-142 100 0
-142 -4 0
-142 -61 0
-142 7 0
-142 17 0
-142 -63 0
-142 79 0
-142 -53 0
-142 69 0
-142 11 0
142 -100 4 61 -7 -17 63 -79 53 -69 -11 0
-143 -94 0
-143 -54 0
-143 -92 0
-143 -55 0
-143 28 0
-143 63 0
-143 -22 0
-143 -16 0
-143 72 0
-143 30 0
143 94 54 92 55 -28 -63 22 16 -72 -30 0
-144 -47 0
-144 99 0
-144 21 0
-144 -28 0
-144 -14 0
-144 44 0
-144 46 0
-144 -82 0
-144 24 0
-144 -22 0
144 47 -99 -21 28 14 -44 -46 82 -24 22 0
-145 53 0
-145 -97 0
-145 43 0
-145 -12 0
-145 66 0
-145 -52 0
-145 70 0
-145 -32 0
-145 91 0
-145 38 0
145 -53 97 -43 12 -66 52 -70 32 -91 -38 0
-146 -49 0
-146 55 0
-146 2 0
-146 -98 0
-146 87 0
-146 85 0
-146 -84 0
-146 41 0
-146 -44 0
-146 80 0
146 49 -55 -2 98 -87 -85 84 -41 44 -80 0
-147 90 0
-147 -44 0
-147 -65 0
-147 41 0
-147 95 0
-147 -60 0
-147 -21 0
-147 -96 0
-147 -3 0
-147 31 0
147 -90 44 65 -41 -95 60 21 96 3 -31 0
-148 64 0
-148 67 0
-148 95 0
-148 -42 0
-148 -41 0
-148 -3 0
-148 -60 0
-148 6 0
-148 29 0
-148 -40 0
148 -64 -67 -95 42 41 3 60 -6 -29 40 0
-149 -39 0
-149 -29 0
-149 -99 0
-149 91 0
-149 67 0
-149 72 0
-149 11 0
-149 -95 0
-149 -92 0
-149 -64 0
149 39 29 99 -91 -67 -72 -11 95 92 64 0
-150 18 0
-150 78 0
-150 4 0
-150 -39 0
-150 62 0
-150 44 0
-150 50 0
-150 13 0
-150 23 0
-150 -96 0
150 -18 -78 -4 39 -62 -44 -50 -13 -23 96 0
141 142 143 144 145 146 147 148 149 150 0
-151 -73 0
-151 -40 0
-151 10 0
-151 -47 0
-151 -94 0
-151 -69 0
-151 -34 0
-151 -80 0
-151 -36 0
-151 48 0
151 73 40 -10 47 94 69 34 80 36 -48 0
-152 -20 0
-152 -94 0
-152 32 0
-152 75 0
-152 -50 0
-152 -19 0
-152 57 0
-152 99 0
-152 26 0
-152 -4 0
152 20 94 -32 -75 50 19 -57 -99 -26 4 0
-153 58 0
-153 78 0
-153 -33 0
-153 -37 0
-153 -26 0
-153 64 0
-153 66 0
-153 92 0
-153 83 0
-153 7 0
153 -58 -78 33 37 26 -64 -66 -92 -83 -7 0
-154 38 0
-154 34 0
-154 -57 0
-154 29 0
-154 87 0
-154 -31 0
-154 97 0
-154 62 0
-154 -24 0
-154 21 0
154 -38 -34 57 -29 -87 31 -97 -62 24 -21 0
-155 9 0
-155 33 0
-155 -48 0
-155 -57 0
-155 56 0
-155 22 0
-155 99 0
-155 15 0
-155 64 0
-155 66 0
155 -9 -33 48 57 -56 -22 -99 -15 -64 -66 0
-156 -3 0
-156 -52 0
-156 -13 0
-156 64 0
-156 -80 0
-156 56 0
-156 -16 0
-156 83 0
-156 -54 0
-156 35 0
156 3 52 13 -64 80 -56 16 -83 54 -35 0
-157 55 0
-157 -51 0
-157 -29 0
-157 89 0
-157 9 0
-157 -19 0
-157 24 0
-157 -87 0
-157 -57 0
-157 17 0
157 -55 51 29 -89 -9 19 -24 87 57 -17 0
-158 4 0
-158 -1 0
-158 -81 0
-158 -63 0
-158 -39 0
-158 100 0
-158 -77 0
-158 90 0
-158 -83 0
-158 -15 0
158 -4 1 81 63 39 -100 77 -90 83 15 0
-159 11 0
-159 59 0
-159 -2 0
-159 -52 0
-159 -45 0
-159 -19 0
-159 94 0
-159 -46 0
-159 100 0
-159 -92 0
159 -11 -59 2 52 45 19 -94 46 -100 92 0
-160 -84 0
-160 -10 0
-160 100 0
-160 68 0
-160 -86 0
-160 35 0
-160 -79 0
-160 -6 0
-160 -66 0
-160 -71 0
160 84 10 -100 -68 86 -35 79 6 66 71 0
151 152 153 154 155 156 157 158 159 160 0
-161 -66 0
-161 27 0
-161 98 0
-161 94 0
-161 12 0
-161 64 0
-161 72 0
-161 -95 0
-161 -30 0
-161 -29 0
161 66 -27 -98 -94 -12 -64 -72 95 30 29 0
-162 -28 0
-162 31 0
-162 80 0
-162 92 0
-162 -73 0
-162 -84 0
-162 27 0
-162 -53 0
-162 100 0
-162 -61 0
162 28 -31 -80 -92 73 84 -27 53 -100 61 0
-163 -100 0
-163 -34 0
-163 26 0
-163 -64 0
-163 -5 0
-163 -13 0
-163 -49 0
-163 23 0
-163 -36 0
-163 46 0
163 100 34 -26 64 5 13 49 -23 36 -46 0
-164 32 0
-164 -40 0
-164 9 0
-164 -47 0
-164 24 0
-164 -35 0
-164 -62 0
-164 49 0
-164 -59 0
-164 -68 0
164 -32 40 -9 47 -24 35 62 -49 59 68 0
-165 -2 0
-165 47 0
-165 23 0
-165 51 0
-165 -60 0
-165 99 0
-165 5 0
-165 86 0
-165 15 0
-165 74 0
165 2 -47 -23 -51 60 -99 -5 -86 -15 -74 0
-166 100 0
-166 83 0
-166 -17 0
-166 -98 0
-166 -44 0
-166 40 0
-166 21 0
-166 -39 0
-166 81 0
-166 85 0
166 -100 -83 17 98 44 -40 -21 39 -81 -85 0
-167 -75 0
-167 -8 0
-167 35 0
-167 -50 0
-167 -85 0
-167 97 0
-167 94 0
-167 22 0
-167 -57 0
-167 -88 0
167 75 8 -35 50 85 -97 -94 -22 57 88 0
-168 -13 0
-168 57 0
-168 11 0
-168 -49 0
-168 -88 0
-168 75 0
-168 29 0
-168 -65 0
-168 -80 0
-168 -83 0
168 13 -57 -11 49 88 -75 -29 65 80 83 0
-169 -75 0
-169 80 0
-169 -19 0
-169 -65 0
-169 -2 0
-169 48 0
-169 -62 0
-169 25 0
-169 -86 0
-169 -63 0
169 75 -80 19 65 2 -48 62 -25 86 63 0
-170 48 0
-170 -70 0
-170 79 0
-170 84 0
-170 25 0
-170 -35 0
-170 29 0
-170 -16 0
-170 -66 0
-170 -74 0
170 -48 70 -79 -84 -25 35 -29 16 66 74 0
161 162 163 164 165 166 167 168 169 170 0
-171 -76 0
-171 87 0
-171 79 0
-171 -34 0
-171 64 0
-171 13 0
-171 20 0
-171 -84 0
-171 -52 0
-171 94 0
171 76 -87 -79 34 -64 -13 -20 84 52 -94 0
-172 -80 0
-172 29 0
-172 88 0
-172 42 0
-172 -85 0
-172 -70 0
-172 -49 0
-172 -84 0
-172 -72 0
-172 -99 0
172 80 -29 -88 -42 85 70 49 84 72 99 0
-173 -96 0
-173 43 0
-173 -88 0
-173 1 0
-173 -65 0
-173 -32 0
-173 89 0
-173 -47 0
-173 -54 0
-173 -15 0
173 96 -43 88 -1 65 32 -89 47 54 15 0
-174 100 0
-174 -49 0
-174 -19 0
-174 -95 0
-174 -28 0
-174 -45 0
-174 -37 0
-174 13 0
-174 20 0
-174 6 0
174 -100 49 19 95 28 45 37 -13 -20 -6 0
-175 1 0
-175 -9 0
-175 -41 0
-175 22 0
-175 44 0
-175 33 0
-175 -18 0
-175 95 0
-175 -6 0
-175 -39 0
175 -1 9 41 -22 -44 -33 18 -95 6 39 0
-176 -67 0
-176 71 0
-176 65 0
-176 -36 0
-176 92 0
-176 57 0
-176 8 0
-176 -53 0
-176 -70 0
-176 39 0
176 67 -71 -65 36 -92 -57 -8 53 70 -39 0
-177 -42 0
-177 -52 0
-177 14 0
-177 36 0
-177 -31 0
-177 1 0
-177 18 0
-177 -41 0
-177 27 0
-177 94 0
177 42 52 -14 -36 31 -1 -18 41 -27 -94 0
-178 -82 0
-178 73 0
-178 31 0
-178 -13 0
-178 24 0
-178 26 0
-178 -37 0
-178 -58 0
-178 29 0
-178 43 0
178 82 -73 -31 13 -24 -26 37 58 -29 -43 0
-179 20 0
-179 -87 0
-179 -49 0
-179 -78 0
-179 -71 0
-179 -19 0
-179 -27 0
-179 46 0
-179 85 0
-179 28 0
179 -20 87 49 78 71 19 27 -46 -85 -28 0
-180 -68 0
-180 -91 0
-180 -7 0
-180 17 0
-180 -87 0
-180 -26 0
-180 -43 0
-180 -40 0
-180 12 0
-180 72 0
180 68 91 7 -17 87 26 43 40 -12 -72 0
171 172 173 174 175 176 177 178 179 180 0
-181 60 0
-181 51 0
-181 -47 0
-181 13 0
-181 -69 0
-181 48 0
-181 -50 0
-181 19 0
-181 86 0
-181 -7 0
181 -60 -51 47 -13 69 -48 50 -19 -86 7 0
-182 -18 0
-182 -39 0
-182 57 0
-182 -30 0
-182 85 0
-182 83 0
-182 -42 0
-182 -48 0
-182 -63 0
-182 66 0
182 18 39 -57 30 -85 -83 42 48 63 -66 0
-183 39 0
-183 77 0
-183 23 0
-183 69 0
-183 88 0
-183 -9 0
-183 75 0
-183 -79 0
-183 46 0
-183 -49 0
183 -39 -77 -23 -69 -88 9 -75 79 -46 49 0
-184 -1 0
-184 95 0
-184 25 0
-184 79 0
-184 34 0
-184 11 0
-184 31 0
-184 -52 0
-184 -37 0
-184 92 0
184 1 -95 -25 -79 -34 -11 -31 52 37 -92 0
-185 -60 0
-185 -14 0
-185 90 0
-185 -50 0
-185 -18 0
-185 1 0
-185 25 0
-185 -66 0
-185 -33 0
-185 -95 0
185 60 14 -90 50 18 -1 -25 66 33 95 0
-186 2 0
-186 -16 0
-186 -98 0
-186 46 0
-186 -43 0
-186 -72 0
-186 -76 0
-186 -54 0
-186 -31 0
-186 -70 0
186 -2 16 98 -46 43 72 76 54 31 70 0
-187 -15 0
-187 -22 0
-187 47 0
-187 -52 0
-187 -42 0
-187 -89 0
-187 97 0
-187 -76 0
-187 -86 0
-187 70 0
187 15 22 -47 52 42 89 -97 76 86 -70 0
-188 -50 0
-188 -77 0
-188 -12 0
-188 34 0
-188 89 0
-188 -28 0
-188 32 0
-188 47 0
-188 56 0
-188 -73 0
188 50 77 12 -34 -89 28 -32 -47 -56 73 0
-189 -4 0
-189 -36 0
-189 -55 0
-189 -41 0
-189 5 0
-189 1 0
-189 -46 0
-189 23 0
-189 -74 0
-189 -18 0
189 4 36 55 41 -5 -1 46 -23 74 18 0
-190 -77 0
-190 -61 0
-190 34 0
-190 -16 0
-190 -67 0
-190 -93 0
-190 92 0
-190 -49 0
-190 -41 0
-190 -54 0
190 77 61 -34 16 67 93 -92 49 41 54 0
181 182 183 184 185 186 187 188 189 190 0
-191 18 0
-191 -63 0
-191 -86 0
-191 88 0
-191 -19 0
-191 32 0
-191 -55 0
-191 8 0
-191 -69 0
-191 97 0
191 -18 63 86 -88 19 -32 55 -8 69 -97 0
-192 46 0
-192 -37 0
-192 -50 0
-192 -16 0
-192 44 0
-192 -77 0
-192 -20 0
-192 -100 0
-192 1 0
-192 18 0
192 -46 37 50 16 -44 77 20 100 -1 -18 0
-193 -60 0
-193 89 0
-193 84 0
-193 -87 0
-193 86 0
-193 38 0
-193 29 0
-193 -10 0
-193 -92 0
-193 -18 0
193 60 -89 -84 87 -86 -38 -29 10 92 18 0
-194 -37 0
-194 17 0
-194 18 0
-194 89 0
-194 -74 0
-194 -7 0
-194 -45 0
-194 31 0
-194 -41 0
-194 -93 0
194 37 -17 -18 -89 74 7 45 -31 41 93 0
-195 -26 0
-195 -9 0
-195 -21 0
-195 -7 0
-195 -98 0
-195 -36 0
-195 31 0
-195 -46 0
-195 37 0
-195 -15 0
195 26 9 21 7 98 36 -31 46 -37 15 0
-196 5 0
-196 26 0
-196 -36 0
-196 -82 0
-196 21 0
-196 -71 0
-196 -84 0
-196 31 0
-196 57 0
-196 -78 0
196 -5 -26 36 82 -21 71 84 -31 -57 78 0
-197 14 0
-197 -70 0
-197 34 0
-197 46 0
-197 -3 0
-197 -26 0
-197 31 0
-197 80 0
-197 15 0
-197 -99 0
197 -14 70 -34 -46 3 26 -31 -80 -15 99 0
-198 -53 0
-198 -18 0
-198 100 0
-198 -51 0
-198 -42 0
-198 -25 0
-198 30 0
-198 -79 0
-198 48 0
-198 -76 0
198 53 18 -100 51 42 25 -30 79 -48 76 0
-199 6 0
-199 -96 0
-199 44 0
-199 -62 0
-199 20 0
-199 -41 0
-199 -1 0
-199 36 0
-199 -99 0
-199 -61 0
199 -6 96 -44 62 -20 41 1 -36 99 61 0
-200 -44 0
-200 -81 0
-200 85 0
-200 7 0
-200 -3 0
-200 -35 0
-200 17 0
-200 -40 0
-200 -48 0
-200 -30 0
200 44 81 -85 -7 3 35 -17 40 48 30 0
191 192 193 194 195 196 197 198 199 200 0
